c CNF file corresponding to a (partial) station packing problem.
p cnf 7002 229
6986 6987 6988 6989 6990 6991 6992 6993 6994 6995 6996 6997 6998 6999 7000 7001 7002 0
-6986 -6987 0
-6986 -6988 0
-6986 -6989 0
-6986 -6990 0
-6986 -6991 0
-6986 -6992 0
-6986 -6993 0
-6986 -6994 0
-6986 -6995 0
-6986 -6996 0
-6986 -6997 0
-6986 -6998 0
-6986 -6999 0
-6986 -7000 0
-6986 -7001 0
-6986 -7002 0
-6987 -6988 0
-6987 -6989 0
-6987 -6990 0
-6987 -6991 0
-6987 -6992 0
-6987 -6993 0
-6987 -6994 0
-6987 -6995 0
-6987 -6996 0
-6987 -6997 0
-6987 -6998 0
-6987 -6999 0
-6987 -7000 0
-6987 -7001 0
-6987 -7002 0
-6988 -6989 0
-6988 -6990 0
-6988 -6991 0
-6988 -6992 0
-6988 -6993 0
-6988 -6994 0
-6988 -6995 0
-6988 -6996 0
-6988 -6997 0
-6988 -6998 0
-6988 -6999 0
-6988 -7000 0
-6988 -7001 0
-6988 -7002 0
-6989 -6990 0
-6989 -6991 0
-6989 -6992 0
-6989 -6993 0
-6989 -6994 0
-6989 -6995 0
-6989 -6996 0
-6989 -6997 0
-6989 -6998 0
-6989 -6999 0
-6989 -7000 0
-6989 -7001 0
-6989 -7002 0
-6990 -6991 0
-6990 -6992 0
-6990 -6993 0
-6990 -6994 0
-6990 -6995 0
-6990 -6996 0
-6990 -6997 0
-6990 -6998 0
-6990 -6999 0
-6990 -7000 0
-6990 -7001 0
-6990 -7002 0
-6991 -6992 0
-6991 -6993 0
-6991 -6994 0
-6991 -6995 0
-6991 -6996 0
-6991 -6997 0
-6991 -6998 0
-6991 -6999 0
-6991 -7000 0
-6991 -7001 0
-6991 -7002 0
-6992 -6993 0
-6992 -6994 0
-6992 -6995 0
-6992 -6996 0
-6992 -6997 0
-6992 -6998 0
-6992 -6999 0
-6992 -7000 0
-6992 -7001 0
-6992 -7002 0
-6993 -6994 0
-6993 -6995 0
-6993 -6996 0
-6993 -6997 0
-6993 -6998 0
-6993 -6999 0
-6993 -7000 0
-6993 -7001 0
-6993 -7002 0
-6994 -6995 0
-6994 -6996 0
-6994 -6997 0
-6994 -6998 0
-6994 -6999 0
-6994 -7000 0
-6994 -7001 0
-6994 -7002 0
-6995 -6996 0
-6995 -6997 0
-6995 -6998 0
-6995 -6999 0
-6995 -7000 0
-6995 -7001 0
-6995 -7002 0
-6996 -6997 0
-6996 -6998 0
-6996 -6999 0
-6996 -7000 0
-6996 -7001 0
-6996 -7002 0
-6997 -6998 0
-6997 -6999 0
-6997 -7000 0
-6997 -7001 0
-6997 -7002 0
-6998 -6999 0
-6998 -7000 0
-6998 -7001 0
-6998 -7002 0
-6999 -7000 0
-6999 -7001 0
-6999 -7002 0
-7000 -7001 0
-7000 -7002 0
-7001 -7002 0
1 2 3 4 5 6 7 8 9 10 11 12 13 14 0
-1 -2 0
-1 -3 0
-1 -4 0
-1 -5 0
-1 -6 0
-1 -7 0
-1 -8 0
-1 -9 0
-1 -10 0
-1 -11 0
-1 -12 0
-1 -13 0
-1 -14 0
-2 -3 0
-2 -4 0
-2 -5 0
-2 -6 0
-2 -7 0
-2 -8 0
-2 -9 0
-2 -10 0
-2 -11 0
-2 -12 0
-2 -13 0
-2 -14 0
-3 -4 0
-3 -5 0
-3 -6 0
-3 -7 0
-3 -8 0
-3 -9 0
-3 -10 0
-3 -11 0
-3 -12 0
-3 -13 0
-3 -14 0
-4 -5 0
-4 -6 0
-4 -7 0
-4 -8 0
-4 -9 0
-4 -10 0
-4 -11 0
-4 -12 0
-4 -13 0
-4 -14 0
-5 -6 0
-5 -7 0
-5 -8 0
-5 -9 0
-5 -10 0
-5 -11 0
-5 -12 0
-5 -13 0
-5 -14 0
-6 -7 0
-6 -8 0
-6 -9 0
-6 -10 0
-6 -11 0
-6 -12 0
-6 -13 0
-6 -14 0
-7 -8 0
-7 -9 0
-7 -10 0
-7 -11 0
-7 -12 0
-7 -13 0
-7 -14 0
-8 -9 0
-8 -10 0
-8 -11 0
-8 -12 0
-8 -13 0
-8 -14 0
-9 -10 0
-9 -11 0
-9 -12 0
-9 -13 0
-9 -14 0
-10 -11 0
-10 -12 0
-10 -13 0
-10 -14 0
-11 -12 0
-11 -13 0
-11 -14 0
-12 -13 0
-12 -14 0
-13 -14 0
